# Objective value = 15
y 15
x1 1
r1 1
y1 0
p12 0
q12 1
p13 0
q13 0
p14 0
q14 1
p15 0
q15 1
p16 0
q16 0
p17 0
q17 0
p18 0
q18 0
p19 0
q19 0
p110 0
q110 0
p111 1
q111 0
p112 0
q112 1
p113 0
q113 1
p114 0
q114 0
p115 0
q115 0
p116 0
q116 0
p117 0
q117 1
p118 0
q118 0
p119 0
q119 0
p120 0
q120 0
p121 0
q121 1
p122 0
q122 0
p123 0
q123 0
p124 0
q124 1
p125 0
q125 1
p126 0
q126 0
p127 0
q127 0
p128 0
q128 0
p129 0
q129 0
p130 0
q130 0
x2 2
r2 0
y2 2
p23 0
q23 0
p24 0
q24 0
p25 1
q25 1
p26 0
q26 0
p27 0
q27 0
p28 1
q28 1
p29 0
q29 0
p210 1
q210 1
p211 1
q211 1
p212 0
q212 0
p213 0
q213 0
p214 1
q214 1
p215 0
q215 0
p216 0
q216 0
p217 0
q217 1
p218 0
q218 0
p219 0
q219 0
p220 0
q220 0
p221 1
q221 0
p222 0
q222 0
p223 0
q223 0
p224 1
q224 0
p225 1
q225 0
p226 0
q226 0
p227 0
q227 0
p228 0
q228 0
p229 0
q229 0
p230 0
q230 0
x3 4
r3 1
y3 1
p34 1
q34 0
p35 1
q35 0
p36 0
q36 1
p37 0
q37 1
p38 1
q38 1
p39 0
q39 0
p310 1
q310 1
p311 1
q311 0
p312 0
q312 1
p313 0
q313 1
p314 1
q314 1
p315 1
q315 1
p316 0
q316 1
p317 1
q317 0
p318 0
q318 1
p319 0
q319 1
p320 0
q320 1
p321 1
q321 0
p322 0
q322 1
p323 0
q323 1
p324 1
q324 0
p325 1
q325 0
p326 0
q326 1
p327 0
q327 1
p328 1
q328 1
p329 0
q329 1
p330 0
q330 1
x4 3
r4 0
y4 1
p45 1
q45 0
p46 0
q46 0
p47 0
q47 0
p48 0
q48 0
p49 0
q49 0
p410 1
q410 1
p411 1
q411 0
p412 0
q412 0
p413 0
q413 0
p414 0
q414 0
p415 0
q415 0
p416 0
q416 0
p417 1
q417 0
p418 0
q418 0
p419 0
q419 0
p420 0
q420 0
p421 1
q421 0
p422 0
q422 0
p423 0
q423 0
p424 1
q424 0
p425 1
q425 0
p426 0
q426 0
p427 0
q427 0
p428 0
q428 0
p429 0
q429 0
p430 0
q430 0
x5 0
r5 0
y5 1
p56 0
q56 0
p57 0
q57 0
p58 1
q58 1
p59 0
q59 0
p510 0
q510 0
p511 1
q511 1
p512 0
q512 1
p513 0
q513 1
p514 0
q514 0
p515 0
q515 0
p516 0
q516 0
p517 0
q517 1
p518 0
q518 1
p519 0
q519 0
p520 0
q520 0
p521 0
q521 0
p522 0
q522 0
p523 0
q523 0
p524 0
q524 1
p525 0
q525 1
p526 0
q526 1
p527 0
q527 0
p528 0
q528 0
p529 0
q529 0
p530 0
q530 0
x6 8
r6 0
y6 2
p67 0
q67 0
p68 1
q68 0
p69 0
q69 0
p610 1
q610 0
p611 1
q611 0
p612 1
q612 0
p613 1
q613 0
p614 1
q614 1
p615 0
q615 0
p616 1
q616 0
p617 1
q617 0
p618 1
q618 0
p619 0
q619 0
p620 0
q620 0
p621 1
q621 0
p622 0
q622 0
p623 1
q623 0
p624 1
q624 0
p625 1
q625 0
p626 0
q626 0
p627 1
q627 0
p628 0
q628 0
p629 0
q629 0
p630 0
q630 0
x7 11
r7 0
y7 2
p78 1
q78 0
p79 0
q79 0
p710 1
q710 0
p711 1
q711 0
p712 1
q712 0
p713 1
q713 0
p714 1
q714 1
p715 1
q715 1
p716 1
q716 0
p717 1
q717 0
p718 1
q718 0
p719 0
q719 0
p720 1
q720 0
p721 1
q721 0
p722 1
q722 0
p723 1
q723 0
p724 1
q724 0
p725 1
q725 0
p726 1
q726 0
p727 1
q727 0
p728 0
q728 0
p729 1
q729 0
p730 1
q730 0
x8 6
r8 0
y8 0
p89 0
q89 0
p810 1
q810 0
p811 1
q811 0
p812 0
q812 1
p813 1
q813 0
p814 0
q814 0
p815 0
q815 0
p816 0
q816 0
p817 0
q817 1
p818 0
q818 1
p819 0
q819 0
p820 0
q820 0
p821 1
q821 0
p822 0
q822 0
p823 1
q823 0
p824 0
q824 1
p825 1
q825 0
p826 0
q826 1
p827 0
q827 1
p828 0
q828 0
p829 0
q829 0
p830 0
q830 1
x9 13
r9 0
y9 0
p910 1
q910 0
p911 1
q911 0
p912 1
q912 0
p913 1
q913 0
p914 1
q914 0
p915 1
q915 0
p916 1
q916 0
p917 1
q917 0
p918 1
q918 0
p919 1
q919 0
p920 1
q920 0
p921 1
q921 0
p922 1
q922 0
p923 1
q923 0
p924 1
q924 0
p925 1
q925 0
p926 1
q926 0
p927 1
q927 0
p928 1
q928 0
p929 1
q929 0
p930 1
q930 0
x10 5
r10 0
y10 0
p1011 1
q1011 0
p1012 0
q1012 1
p1013 0
q1013 1
p1014 0
q1014 0
p1015 0
q1015 0
p1016 0
q1016 0
p1017 0
q1017 1
p1018 0
q1018 1
p1019 0
q1019 0
p1020 0
q1020 0
p1021 0
q1021 1
p1022 0
q1022 0
p1023 1
q1023 0
p1024 0
q1024 1
p1025 0
q1025 1
p1026 0
q1026 1
p1027 0
q1027 0
p1028 0
q1028 0
p1029 0
q1029 0
p1030 0
q1030 1
x11 0
r11 0
y11 0
p1112 0
q1112 1
p1113 0
q1113 1
p1114 0
q1114 0
p1115 0
q1115 0
p1116 0
q1116 0
p1117 0
q1117 1
p1118 0
q1118 0
p1119 0
q1119 0
p1120 0
q1120 0
p1121 0
q1121 0
p1122 0
q1122 0
p1123 0
q1123 0
p1124 0
q1124 1
p1125 0
q1125 1
p1126 0
q1126 0
p1127 0
q1127 0
p1128 0
q1128 0
p1129 0
q1129 0
p1130 0
q1130 0
x12 5
r12 0
y12 2
p1213 0
q1213 1
p1214 0
q1214 0
p1215 0
q1215 0
p1216 0
q1216 0
p1217 0
q1217 1
p1218 0
q1218 1
p1219 0
q1219 0
p1220 0
q1220 0
p1221 1
q1221 0
p1222 0
q1222 0
p1223 1
q1223 0
p1224 1
q1224 0
p1225 1
q1225 0
p1226 0
q1226 1
p1227 0
q1227 0
p1228 0
q1228 0
p1229 0
q1229 0
p1230 0
q1230 1
x13 5
r13 0
y13 3
p1314 0
q1314 0
p1315 0
q1315 0
p1316 0
q1316 0
p1317 1
q1317 0
p1318 0
q1318 1
p1319 0
q1319 0
p1320 0
q1320 0
p1321 1
q1321 0
p1322 0
q1322 0
p1323 1
q1323 0
p1324 1
q1324 0
p1325 1
q1325 0
p1326 0
q1326 0
p1327 0
q1327 0
p1328 0
q1328 0
p1329 0
q1329 0
p1330 0
q1330 0
x14 7
r14 0
y14 0
p1415 0
q1415 0
p1416 0
q1416 1
p1417 0
q1417 1
p1418 0
q1418 1
p1419 0
q1419 1
p1420 0
q1420 0
p1421 0
q1421 1
p1422 0
q1422 0
p1423 1
q1423 0
p1424 0
q1424 1
p1425 1
q1425 0
p1426 0
q1426 1
p1427 0
q1427 1
p1428 0
q1428 0
p1429 0
q1429 0
p1430 0
q1430 1
x15 10
r15 1
y15 0
p1516 0
q1516 1
p1517 1
q1517 0
p1518 1
q1518 0
p1519 0
q1519 1
p1520 0
q1520 1
p1521 0
q1521 1
p1522 0
q1522 1
p1523 1
q1523 0
p1524 1
q1524 0
p1525 1
q1525 0
p1526 1
q1526 0
p1527 0
q1527 1
p1528 0
q1528 0
p1529 0
q1529 1
p1530 0
q1530 1
x16 7
r16 0
y16 2
p1617 1
q1617 0
p1618 1
q1618 0
p1619 0
q1619 0
p1620 0
q1620 0
p1621 1
q1621 0
p1622 0
q1622 0
p1623 1
q1623 0
p1624 1
q1624 0
p1625 1
q1625 0
p1626 0
q1626 0
p1627 1
q1627 0
p1628 0
q1628 0
p1629 0
q1629 0
p1630 0
q1630 0
x17 2
r17 0
y17 5
p1718 0
q1718 0
p1719 0
q1719 0
p1720 0
q1720 0
p1721 1
q1721 0
p1722 0
q1722 0
p1723 0
q1723 0
p1724 1
q1724 0
p1725 1
q1725 1
p1726 0
q1726 0
p1727 0
q1727 0
p1728 0
q1728 0
p1729 0
q1729 0
p1730 0
q1730 0
x18 5
r18 0
y18 10
p1819 0
q1819 0
p1820 0
q1820 0
p1821 1
q1821 0
p1822 0
q1822 0
p1823 1
q1823 0
p1824 1
q1824 0
p1825 1
q1825 0
p1826 0
q1826 0
p1827 0
q1827 0
p1828 1
q1828 1
p1829 0
q1829 0
p1830 0
q1830 0
x19 12
r19 0
y19 3
p1920 1
q1920 0
p1921 1
q1921 0
p1922 1
q1922 0
p1923 1
q1923 0
p1924 1
q1924 0
p1925 1
q1925 0
p1926 1
q1926 0
p1927 1
q1927 0
p1928 1
q1928 1
p1929 1
q1929 0
p1930 1
q1930 0
x20 10
r20 0
y20 7
p2021 1
q2021 0
p2022 1
q2022 1
p2023 1
q2023 0
p2024 1
q2024 0
p2025 1
q2025 0
p2026 1
q2026 0
p2027 1
q2027 0
p2028 1
q2028 1
p2029 1
q2029 0
p2030 0
q2030 1
x21 1
r21 0
y21 1
p2122 0
q2122 0
p2123 0
q2123 0
p2124 1
q2124 0
p2125 1
q2125 0
p2126 0
q2126 0
p2127 0
q2127 0
p2128 1
q2128 1
p2129 0
q2129 0
p2130 0
q2130 0
x22 10
r22 0
y22 2
p2223 1
q2223 0
p2224 1
q2224 0
p2225 1
q2225 0
p2226 1
q2226 0
p2227 1
q2227 0
p2228 1
q2228 1
p2229 1
q2229 0
p2230 0
q2230 1
x23 4
r23 0
y23 2
p2324 1
q2324 0
p2325 1
q2325 0
p2326 0
q2326 0
p2327 0
q2327 0
p2328 0
q2328 0
p2329 0
q2329 0
p2330 0
q2330 0
x24 0
r24 0
y24 5
p2425 1
q2425 1
p2426 0
q2426 0
p2427 0
q2427 0
p2428 1
q2428 1
p2429 0
q2429 0
p2430 0
q2430 0
x25 0
r25 0
y25 2
p2526 0
q2526 0
p2527 0
q2527 0
p2528 0
q2528 0
p2529 0
q2529 0
p2530 0
q2530 0
x26 9
r26 0
y26 9
p2627 1
q2627 0
p2628 1
q2628 1
p2629 1
q2629 1
p2630 0
q2630 1
x27 6
r27 0
y27 2
p2728 1
q2728 1
p2729 0
q2729 0
p2730 0
q2730 1
x28 12
r28 0
y28 0
p2829 1
q2829 0
p2830 0
q2830 1
x29 9
r29 0
y29 2
p2930 0
q2930 1
x30 9
r30 0
y30 13
